language ESSENCE' 1.0
$ Minion SolverNodes: 1
$ Minion SolverTotalTime: 0.024921
$ Minion SolverTimeOut: 0
$ Savile Row TotalTime: 0.056
letting puzzle be [[1, 2, 3, 4], 
[4, 1, 2, 3], 
[3, 4, 1, 2], 
[2, 3, 4, 1]]
